&bands
  outdir='/scratch/cyulu/'
  prefix='si'
  filband='si.bands.dat'
/
