&control
 calculation='bands',
 prefix='si',
 pseudo_dir= '/research/lens/pseudo/',
 outdir = '/scratch/cyulu/',
 verbosity='high'
/
&system
    ibrav=2, celldm(1) =10.410909236,
    nat=2, ntyp=1,
    ecutwfc=40
    ecutrho=320
    nbnd=8
!    occupations='smearing', smearing='gaussian',degauss=0.005
/
&electrons
 conv_thr=1.d-10,
/
ATOMIC_SPECIES
Si  28.0855  Si.pbe-nl-rrkjus_psl.1.0.0.UPF
ATOMIC_POSITIONS {crystal}
Si  -0.25   0.75   -0.25
Si   0.00   0.00    0.00
K_POINTS {crystal_b}
5
  0.0000 0.5000 0.0000 20 !L
  0.0000 0.0000 0.0000 30 !Gamma
  -0.500 0.0000 -0.500 10 !X
  -0.375 0.2500 -0.375 30 !U
  0.0000 0.0000 0.0000 20 !Gamma
